759
53 64 13 46 2 89 19 5 0 27 41 50 51 34 69 36 15 87 44 39 98 92 66 68 81 61 38 75 96 26 85 6 12 25 9 82 71 77 78 23 94 60 24 57 14 79 45 4 56 74 47 62 86 58 40 29 73 55 70 88 91 52 35 37 43 42 3 80 99 8 95 22 67 32 1 65 83 49 90 16 63 7 10 93 48 76 31 18 54 21 11 72 33 84 28 97 20 30 17 59 53
